zaligvinder/models/DRE/data114/1515.txt
(丁-0|丂-1|七-2|丄-3|丅-4|丆-5|万-6|丈-7|三-8|上-9|下-10|丌-11|不-12|与-13|丏-14|丐-15|丑-16|丒-17|专-18)*.(((且-19|丕-20|世-21|丗-22|丘-23|丙-24|业-25|丛-26|东-27|丝-28|丞-29|丟-30|丠-31|両-32|丢-33|丣-34).(下-35|丌-36|不-37|与-38|丏-39|丐-40|丑-41|丒-42|专-43)*)+.(两-44.(下-45|丌-46|不-47|与-48|丏-49|丐-50|丑-51|丒-52|专-53)*)*.(严-54.(严-55|两-56|下-57|丌-58|不-59|与-60|丏-61|丐-62|丑-63|丒-64|专-65)*|並-66.(並-67|两-68|下-69|丌-70|不-71|与-72|丏-73|丐-74|丑-75|丒-76|专-77)*|丧-78.(丧-79|两-80|下-81|丌-82|不-83|与-84|丏-85|丐-86|丑-87|丒-88|专-89)*)?|(两-90.(下-91|丌-92|不-93|与-94|丏-95|丐-96|丑-97|丒-98|专-99)*)*.(严-100.(严-101|两-102|下-103|丌-104|不-105|与-106|丏-107|丐-108|丑-109|丒-110|专-111)*|並-112.(並-113|两-114|下-115|丌-116|不-117|与-118|丏-119|丐-120|丑-121|丒-122|专-123)*|丧-124.(丧-125|两-126|下-127|丌-128|不-129|与-130|丏-131|丐-132|丑-133|丒-134|专-135)*)).((丂-136|丨-137|七-138|丆-139|三-140|上-141|丩-142).(下-143|丌-144|不-145|与-146|丏-147|丐-148|丑-149|丒-150|专-151)*)*
(丁-0|丂-1|七-2|丄-3|丅-4|丆-5|万-6|丈-7|三-8|上-9|下-10|丌-11|不-12|与-13|丏-14|丐-15|丑-16|丒-17|专-18|且-19|丕-20|世-21|丗-22|丘-23|丙-24|业-25|丛-26|东-27|丝-28|丞-29|丟-30|丠-31|両-32)*.(((丢-33|丣-34).(上-35|下-36|丌-37|不-38|与-39|丏-40|丐-41|丑-42|丒-43|专-44|且-45|丕-46|世-47|丗-48|丘-49|丙-50|业-51|丛-52|东-53|丝-54|丞-55|丟-56|丠-57|両-58)*)+|((两-59|严-60|並-61|丧-62|丨-63|丩-64|个-65|丫-66|丬-67|中-68|丮-69|丯-70|丰-71|丱-72|串-73|丳-74|临-75|丵-76).(上-77|下-78|丌-79|不-80|与-81|丏-82|丐-83|丑-84|丒-85|专-86|且-87|丕-88|世-89|丗-90|丘-91|丙-92|业-93|丛-94|东-95|丝-96|丞-97|丟-98|丠-99|両-100)*)+.((丢-101|丣-102).(上-103|下-104|丌-105|不-106|与-107|丏-108|丐-109|丑-110|丒-111|专-112|且-113|丕-114|世-115|丗-116|丘-117|丙-118|业-119|丛-120|东-121|丝-122|丞-123|丟-124|丠-125|両-126)*)*).((丂-127|丶-128|丅-129|丈-130|三-131|丷-132).(上-133|下-134|丌-135|不-136|与-137|丏-138|丐-139|丑-140|丒-141|专-142|且-143|丕-144|世-145|丗-146|丘-147|丙-148|业-149|丛-150|东-151|丝-152|丞-153|丟-154|丠-155|両-156)*)*
